p cnf 3124 2787
c ind 990 991 992 993 994 995 996 997 1029 1030 0
c ind 1031 1032 1033 1034 1035 1036 1037 1038 1039 1040 0
c ind 1041 1042 1043 1044 1045 1046 1047 1048 1049 1050 0
c ind 1051 1052 1053 1054 1055 1056 1057 1058 1059 1060 0
c ind 1061 1062 1063 1064 1065 1066 1067 1068 1069 1070 0
c ind 1071 1072 1073 1074 1075 1076 1077 1078 1079 1080 0
c ind 1081 1082 1083 1084 1085 1086 1087 1088 1089 1090 0
c ind 1091 1092 1093 1094 1095 1096 1278 1279 1280 1281 0
c ind 1282 1283 1284 1285 1286 1287 1288 1289 1290 1291 0
c ind 1292 1293 1294 1295 1296 1297 1298 1299 1300 1301 0
c ind 1302 1303 1304 1305 1306 1307 1308 1309 1310 1311 0
c ind 1312 1313 1314 1315 1316 1317 1318 1319 1320 1321 0
c ind 1322 1323 1324 1325 1326 1327 1328 1329 1330 1331 0
c ind 1332 1333 1334 1335 1336 1337 1338 1339 1340 1341 0
c ind 1342 1343 1344 1345 1346 1347 1348 1349 1350 1351 0
c ind 1352 1353 1354 1355 1356 1357 1392 1393 1394 1395 0
c ind 1396 1397 1398 1399 1400 1401 1142 1402 1403 1024 0
c ind 1025 1026 1027 1028 1167 1168 1169 1170 1171 1172 0
c ind 1173 1174 1175 1176 1177 1178 1179 1180 1181 1182 0
c ind 1404 1405 1183 1184 1406 1407 1185 1186 1187 1188 0
c ind 1189 1190 1191 1192 1193 1194 1195 1196 1197 1198 0
c ind 1143 1199 1200 1408 1201 1409 1202 1203 1410 1204 0
c ind 1411 1205 1206 1207 1208 1209 1210 1120 1121 1122 0
c ind 1123 1124 1412 1125 1126 1127 1128 1129 1413 1130 0
c ind 1131 1414 1132 1133 1415 1134 1416 1135 1136 1137 0
c ind 1138 1139 1140 1141 1145 1146 1147 1148 1149 1150 0
c ind 1417 1151 1144 1152 1153 1418 1154 1419 1155 1156 0
c ind 1157 1420 1158 1421 1159 1160 1161 1162 1163 1164 0
c ind 1165 1166 998 999 1000 1001 1002 1003 1004 1005 0
c ind 1006 1007 1422 1008 1423 1009 1010 1011 1424 1425 0
c ind 1012 1013 1014 1015 1016 1017 1018 1019 1020 1097 0
c ind 1426 1098 1021 1099 1100 1101 1102 1103 1104 1427 0
c ind 1105 1428 1106 1107 1429 1430 1108 1109 1110 1111 0
c ind 1112 1113 1114 1115 1431 1116 1432 1117 1118 1119 0
c ind 1433 1358 1359 1360 1361 1362 1363 1364 1365 1366 0
c ind 1367 1368 1369 1370 1371 1434 1372 1373 1374 1375 0
c ind 1435 1376 1436 1377 1437 1378 1438 1379 1380 1381 0
c ind 1382 1383 1384 1385 1386 1387 1388 1389 1390 1391 0
c ind 1211 1212 1213 1214 1215 1216 1217 1218 1219 1220 0
c ind 1221 1222 1223 1224 1225 1226 1022 1227 1228 1229 0
c ind 1230 1231 1232 1233 1234 1235 1236 1237 1238 1239 0
c ind 1240 1241 1242 1243 1244 1245 1246 1247 1248 1249 0
c ind 1250 1251 1252 1253 1254 1255 1256 1257 1258 1259 0
c ind 1260 1261 1262 1263 1264 1265 1023 1266 1267 1268 0
c ind 1269 1270 1271 1272 1273 1274 1275 1276 1277 931 0
c ind 932 933 934 935 936 937 938 939 940 941 0
c ind 942 943 944 945 946 947 948 949 950 951 0
c ind 952 953 954 955 956 957 958 959 960 961 0
c ind 962 963 964 965 966 967 968 969 970 971 0
c ind 972 973 974 975 976 977 978 979 980 981 0
c ind 982 983 984 985 986 987 988 989 0
788 -789 903 0
788 -789 817 0
788 -789 891 0
-788 789 0
-817 -891 -788 -903 0
789 -790 -804 -816 0
-789 790 0
-789 804 0
-789 816 0
790 791 -795 0
-790 -791 0
-790 795 0
-792 -1188 791 0
-794 -1188 791 0
-793 -1188 791 0
-791 1188 0
-791 792 793 794 0
792 -1194 1195 1196 0
-792 1194 0
-792 -1196 0
-792 -1195 0
793 1194 1197 1198 0
-793 -1194 0
-793 -1198 0
-793 -1197 0
794 -1189 1190 1191 0
-794 1189 0
-794 -1191 0
-794 -1190 0
795 796 800 -1123 -1154 0
-795 1154 0
-795 -800 0
-795 1123 0
-795 -796 0
797 1155 796 1156 1157 0
-796 -797 0
-796 -1157 0
-796 -1155 0
-796 -1156 0
797 798 -1160 0
797 798 799 -1161 0
-797 -798 0
-797 -799 1160 0
-797 1160 1161 0
798 1158 -1159 0
-798 -1158 0
-798 1159 0
799 998 1166 0
799 1005 1006 1166 0
-799 -1166 0
-799 -998 -1006 0
-799 -998 -1005 0
801 1124 800 1125 1126 0
-800 -801 0
-800 -1126 0
-800 -1124 0
-800 -1125 0
801 802 -1129 0
801 802 803 -1130 0
-801 -802 0
-801 -803 1129 0
-801 1129 1130 0
802 1127 -1128 0
-802 -1127 0
-802 1128 0
803 1135 1136 0
803 1135 1146 1147 0
-803 -1135 0
-803 -1136 -1146 0
-803 -1136 -1147 0
804 805 808 -811 0
804 805 809 -811 0
-804 -805 0
-804 811 0
-808 -809 -804 0
-806 -807 805 -1217 0
-806 -807 805 -1218 0
-805 807 0
-805 806 0
-805 1217 1218 0
806 1220 1221 1222 1223 0
-806 -1223 0
-806 -1222 0
-806 -1220 0
-806 -1221 0
807 -1214 -1215 -1216 1219 0
-807 1216 0
-807 -1219 0
-807 1214 0
-807 1215 0
808 -1228 -1235 0
-808 1228 0
-808 1235 0
809 -810 -1236 1237 0
-809 1236 0
-809 -1237 0
-809 810 0
810 1239 -1240 -1241 1242 0
-810 -1239 0
-810 -1242 0
-810 1241 0
-810 1240 0
811 -812 1142 0
811 -812 815 0
-811 812 0
-815 -1142 -811 0
812 -813 -814 -1093 -1264 0
-812 814 0
-812 1093 0
-812 813 0
-812 1264 0
813 -1303 -1332 0
-813 1303 0
-813 1332 0
814 -946 -975 -1035 -1064 0
-814 1064 0
-814 946 0
-814 1035 0
-814 975 0
815 1367 1368 1369 0
-815 -1367 0
-815 -1369 0
-815 -1368 0
816 -1021 1023 0
816 -1022 -1144 0
816 -1021 -1022 0
816 1023 -1144 0
1022 -1023 -816 0
1021 1144 -816 0
817 -818 881 1826 0
817 -818 -881 -1826 0
-817 818 0
-817 881 -1826 0
-817 -881 1826 0
818 -819 -836 0
818 -836 1494 0
-818 836 0
-818 819 -1494 0
819 -820 -812 0
819 834 -812 0
812 -819 0
-819 820 -834 0
820 -821 832 -833 0
820 -832 -833 -1438 0
-820 833 0
-820 821 832 0
-820 -832 1438 0
821 -822 -1437 0
821 822 -823 0
-821 -822 1437 0
-821 822 823 0
822 1231 -1233 0
-822 -1231 0
-822 1233 0
823 824 805 831 0
823 824 805 -828 0
-805 -823 0
-823 -824 0
-823 828 -831 0
824 -826 1142 -1388 0
824 825 1142 1388 0
-824 -1142 0
-824 826 -1388 0
-824 -825 1388 0
825 -1434 -790 0
-825 1434 0
790 -825 0
826 -827 1435 0
825 826 827 0
-826 -827 -1435 0
-825 -826 827 0
827 1116 -1118 0
-827 -1116 0
-827 1118 0
826 828 -829 0
-826 -828 0
-828 829 0
829 830 -1367 0
829 830 -1368 0
829 830 -1369 0
-829 -830 0
-829 1367 1368 1369 0
830 1375 -1377 0
-830 -1375 0
-830 1377 0
830 831 -1142 0
831 -1142 1436 0
-831 1142 0
-830 -831 -1436 0
832 1259 -1261 0
-832 -1259 0
-832 1261 0
833 -1228 1235 0
-833 1228 0
-833 -1235 0
834 835 -1228 0
821 823 834 0
823 834 835 0
821 834 -1228 0
-823 -834 1228 0
-821 -834 -835 0
809 835 -1228 -1235 0
-835 1228 0
-835 1235 0
-809 -835 0
836 -837 871 1444 0
836 -837 -871 -1444 0
-836 837 0
-836 871 -1444 0
-836 -871 1444 0
837 -870 -838 1806 0
837 870 -838 -1806 0
-837 838 0
-837 -870 -1806 0
-837 870 1806 0
838 -848 -839 0
-838 839 0
-838 848 0
839 -812 -840 0
839 -812 847 0
812 -839 0
840 -847 -839 0
832 -833 840 -841 0
-832 -833 840 -1411 0
833 -840 0
832 -840 841 0
-832 -840 1411 0
-822 841 -1410 0
822 841 -842 0
-822 -841 1410 0
822 -841 842 0
842 843 805 846 0
842 843 805 -845 0
-805 -842 0
-842 -843 0
-842 845 -846 0
843 -844 1142 -1388 0
790 843 1142 1388 0
-843 -1142 0
-843 844 -1388 0
-843 1388 -790 0
790 827 844 0
-827 844 1408 0
827 -844 -790 0
-827 -844 -1408 0
-829 844 845 0
829 -845 0
-844 -845 0
830 846 -1142 0
846 -1142 1409 0
-846 1142 0
-830 -846 -1409 0
841 847 -1228 0
835 842 847 0
841 842 847 0
835 847 -1228 0
-835 -841 -847 0
-842 -847 1228 0
848 -849 -856 0
848 851 -854 -856 0
-848 856 0
849 -851 -848 0
849 854 -848 0
-822 849 -1228 0
849 -850 -1228 0
-849 1228 0
822 -849 850 0
-832 850 1235 -1425 0
832 -850 0
-850 1425 0
-850 -1235 0
851 -853 1142 -1388 0
851 852 1142 1388 0
-851 -1142 0
-851 853 -1388 0
-851 -852 1388 0
852 -1022 -790 0
-852 1022 0
790 -852 0
-827 853 1422 0
827 852 853 0
-827 -853 -1422 0
827 -852 -853 0
854 855 805 0
-829 853 805 854 0
-805 -854 0
829 -854 -855 0
-853 -854 -855 0
830 855 -1142 0
855 -1142 1423 0
-855 1142 0
-830 -855 -1423 0
856 -857 -859 -864 0
856 859 -861 -864 0
-856 864 0
857 -859 -856 0
859 861 -856 0
857 -1403 -1433 0
857 858 -1433 0
-857 1433 0
-857 -858 1403 0
858 -1395 -795 1397 0
-858 1395 0
-858 -1397 0
795 -858 0
859 1018 -1142 0
859 860 1018 0
859 1018 -1211 0
-859 -1018 0
-859 -860 1142 1211 0
860 1388 1389 1390 1391 0
-860 -1391 0
-860 -1390 0
-860 -1388 0
-860 -1389 0
861 863 -795 -1401 0
861 862 -795 863 0
795 -861 0
-861 -863 0
-861 -862 1401 0
862 -1395 1397 0
-862 1395 0
-862 -1397 0
-791 863 1395 0
863 1167 1395 1432 0
-863 -1395 0
-863 -1167 791 0
-863 -1432 791 0
864 869 -804 -1264 0
864 865 -804 -1264 0
-864 1264 0
804 -864 0
-865 -869 -864 0
-822 865 -1228 0
865 866 -1228 0
-865 1228 0
822 -865 -866 0
866 867 868 0
810 866 867 -1228 0
-866 -867 0
-866 -868 1228 0
-810 -866 -868 0
-832 867 1235 0
-867 -1235 0
832 -867 0
868 -1235 -1236 1237 0
-868 1235 0
-868 1236 0
-868 -1237 0
850 866 869 0
850 869 1424 0
-850 -869 0
-866 -869 -1424 0
-858 870 -804 0
804 -870 0
858 -870 0
871 -872 -812 0
871 880 -812 0
812 -871 0
-871 872 -880 0
832 -833 872 -873 0
-832 -833 872 -1407 0
833 -872 0
832 -872 873 0
-832 -872 1407 0
-822 873 -1406 0
822 873 -874 0
-822 -873 1406 0
822 -873 874 0
874 875 805 879 0
874 875 805 -878 0
-805 -874 0
-874 -875 0
-874 878 -879 0
875 876 -1142 1405 0
830 875 876 -1142 0
-875 1142 0
-875 -876 0
-830 -875 -1405 0
-829 876 877 0
829 -876 0
-876 -877 0
-827 877 1404 0
790 827 877 0
827 877 1023 0
-827 -877 -1404 0
827 -877 -790 -1023 0
878 -1023 -790 1388 0
827 878 -790 -1023 0
-878 1023 0
790 -878 0
-827 -878 -1388 0
879 1142 1404 0
879 1142 1388 0
827 879 1142 0
-879 -1142 0
-827 -879 -1388 -1404 0
873 880 -1228 0
835 874 880 0
873 874 880 0
835 880 -1228 0
-835 -873 -880 0
-874 -880 1228 0
881 888 -812 0
881 882 -812 -885 0
812 -881 0
-881 -882 -888 0
-881 885 -888 0
882 -884 1142 -1388 0
882 883 1142 1388 0
-882 -1142 0
-882 884 -1388 0
-882 -883 1388 0
883 -1417 -790 0
-883 1417 0
790 -883 0
-827 884 1418 0
827 883 884 0
-827 -884 -1418 0
827 -883 -884 0
885 886 -887 0
-829 884 885 -887 0
-885 887 0
-884 -885 -886 0
829 -885 -886 0
830 886 -1142 0
886 -1142 1419 0
-886 1142 0
-830 -886 -1419 0
865 887 805 0
-805 -887 0
-865 -887 0
832 888 889 0
833 888 889 0
888 889 1421 0
-888 -889 0
-832 -833 -888 -1421 0
-822 889 -890 -1420 0
-889 1420 0
822 -889 0
-889 890 0
-866 890 -1228 0
-890 1228 0
866 -890 0
891 -892 902 -1821 0
891 892 902 1821 0
-891 -902 0
-891 892 -1821 0
-891 -892 1821 0
892 -893 -812 0
892 901 -812 0
812 -892 0
-892 893 -901 0
832 -833 893 -894 0
-832 -833 893 -1416 0
833 -893 0
832 -893 894 0
-832 -893 1416 0
-822 894 -1415 0
822 894 -895 0
-822 -894 1415 0
822 -894 895 0
895 896 805 900 0
895 896 805 -899 0
-805 -895 0
-895 -896 0
-895 899 -900 0
896 -898 1142 -1388 0
896 897 1142 1388 0
-896 -1142 0
-896 898 -1388 0
-896 -897 1388 0
897 -1412 -790 0
-897 1412 0
790 -897 0
-827 898 1413 0
827 897 898 0
-827 -898 -1413 0
827 -897 -898 0
-829 898 899 0
829 -899 0
-898 -899 0
830 900 -1142 0
900 -1142 1414 0
-900 1142 0
-830 -900 -1414 0
894 901 -1228 0
835 895 901 0
894 895 901 0
835 901 -1228 0
-835 -894 -901 0
-895 -901 1228 0
-819 902 1494 0
-902 -1494 0
819 -902 0
903 -904 -1486 0
903 904 1486 0
-903 -904 1486 0
-903 904 -1486 0
904 910 -812 0
904 905 -812 -908 0
812 -904 0
-904 -905 -910 0
-904 908 -910 0
905 -907 1142 -1388 0
905 906 1142 1388 0
-905 -1142 0
-905 907 -1388 0
-905 -906 1388 0
906 -1426 -790 0
-906 1426 0
790 -906 0
-827 907 1427 0
827 906 907 0
-827 -907 -1427 0
827 -906 -907 0
-887 908 909 0
-829 -887 907 908 0
887 -908 0
829 -908 -909 0
-907 -908 -909 0
830 909 -1142 0
909 -1142 1428 0
-909 1142 0
-830 -909 -1428 0
832 910 911 0
833 910 911 0
910 911 1430 0
-910 -911 0
-832 -833 -910 -1430 0
-822 -890 911 -1429 0
-911 1429 0
822 -911 0
890 -911 0
917 -789 912 0
913 -789 912 0
789 -912 0
-912 -913 -917 0
871 913 -839 -914 2344 0
-871 913 -839 -914 -2344 0
-913 914 0
871 -2344 -913 0
839 -913 0
-871 2344 -913 0
914 -915 -916 2726 0
-881 914 -915 -916 0
-914 916 0
-914 915 0
881 -2726 -914 0
-870 915 -848 2706 0
870 915 -848 -2706 0
848 -915 0
-870 -2706 -915 0
870 2706 -915 0
881 -904 916 -2386 0
904 916 2386 -2726 0
-904 916 -2386 -2726 0
881 904 916 2386 0
-904 2386 -916 0
904 -2386 -916 0
-881 2726 -916 0
-819 892 917 -2394 2721 0
819 -892 917 2394 -2721 0
819 892 917 2394 2721 0
-819 -892 917 -2394 -2721 0
819 -2394 -917 0
-819 2394 -917 0
-892 2721 -917 0
892 -2721 -917 0
891 918 -789 0
817 918 -789 0
-904 918 -789 0
789 -918 0
-817 -891 904 -918 0
-892 919 -789 0
817 919 -789 0
-902 919 -789 0
789 -919 0
-817 892 902 -919 0
-881 920 -789 0
818 920 -789 0
-902 920 -789 0
789 -920 0
-818 881 902 -920 0
-819 921 -789 0
836 921 -789 0
789 -921 0
819 -836 -921 0
-871 922 -789 0
837 922 -789 0
789 -922 0
-837 871 -922 0
870 923 -789 0
838 923 -789 0
789 -923 0
-870 -923 -838 0
838 924 -789 0
789 -924 0
-838 -924 0
904 925 -789 0
817 925 -789 0
891 925 -789 0
789 -925 0
-817 -891 -904 -925 0
892 926 -789 0
817 926 -789 0
-902 926 -789 0
789 -926 0
-817 -892 902 -926 0
881 927 -789 0
818 927 -789 0
-902 927 -789 0
789 -927 0
-818 -881 902 -927 0
836 928 -789 0
819 928 -789 0
789 -928 0
-819 -836 -928 0
871 929 -789 0
837 929 -789 0
789 -929 0
-837 -871 -929 0
-870 930 -789 0
838 930 -789 0
789 -930 0
870 -930 -838 0
1 788 0
-1 -788 0
2 788 0
-2 -788 0
3 912 0
-3 -912 0
97 -918 0
-97 918 0
98 -919 0
-98 919 0
99 -920 0
-99 920 0
100 -921 0
-100 921 0
104 -922 0
-104 922 0
126 -923 0
-126 923 0
298 -924 0
-298 924 0
489 -925 0
-489 925 0
490 -926 0
-490 926 0
491 -927 0
-491 927 0
492 -928 0
-492 928 0
496 -929 0
-496 929 0
518 -930 0
-518 930 0
690 -924 0
-690 924 0
-97 -489 2825 0
97 -2825 0
489 -2825 0
97 -1486 0
-97 1486 0
-98 -490 2826 0
98 -2826 0
490 -2826 0
98 -1821 0
-98 1821 0
-99 -491 2827 0
99 -2827 0
491 -2827 0
99 -1826 0
-99 1826 0
-100 -492 2828 0
100 -2828 0
492 -2828 0
100 -1494 0
-100 1494 0
-104 -496 2832 0
104 -2832 0
496 -2832 0
104 -1444 0
-104 1444 0
-126 -518 2854 0
126 -2854 0
518 -2854 0
126 -1806 0
-126 1806 0
-298 -690 3026 0
298 -3026 0
690 -3026 0
298 -1575 0
-298 1575 0
-1 0
-2 0
3 0
4 0
5 0
6 0
7 0
8 0
9 0
10 0
11 0
12 0
13 0
14 0
15 0
16 0
17 0
18 0
19 0
20 0
21 0
22 0
23 0
24 0
25 0
26 0
27 0
28 0
29 0
30 0
31 0
32 0
33 0
34 0
35 0
36 0
37 0
38 0
39 0
40 0
41 0
42 0
43 0
44 0
45 0
46 0
47 0
48 0
49 0
50 0
51 0
52 0
53 0
54 0
55 0
56 0
57 0
58 0
59 0
60 0
61 0
62 0
63 0
64 0
65 0
66 0
67 0
68 0
69 0
70 0
71 0
72 0
73 0
74 0
75 0
76 0
77 0
78 0
79 0
80 0
81 0
82 0
83 0
84 0
85 0
86 0
87 0
88 0
89 0
90 0
91 0
92 0
93 0
94 0
95 0
96 0
101 0
102 0
103 0
105 0
106 0
107 0
108 0
109 0
110 0
111 0
112 0
113 0
114 0
115 0
116 0
117 0
118 0
119 0
120 0
121 0
122 0
123 0
124 0
125 0
127 0
128 0
129 0
130 0
131 0
132 0
133 0
134 0
135 0
136 0
137 0
138 0
139 0
140 0
141 0
142 0
143 0
144 0
145 0
146 0
147 0
148 0
149 0
150 0
151 0
152 0
153 0
154 0
155 0
156 0
157 0
158 0
159 0
160 0
161 0
162 0
163 0
164 0
165 0
166 0
167 0
168 0
169 0
170 0
171 0
172 0
173 0
174 0
175 0
176 0
177 0
178 0
179 0
180 0
181 0
182 0
183 0
184 0
185 0
186 0
187 0
188 0
189 0
190 0
191 0
192 0
193 0
194 0
195 0
196 0
197 0
198 0
199 0
200 0
201 0
202 0
203 0
204 0
205 0
206 0
207 0
208 0
209 0
210 0
211 0
212 0
213 0
214 0
215 0
216 0
217 0
218 0
219 0
220 0
221 0
222 0
223 0
224 0
225 0
226 0
227 0
228 0
229 0
230 0
231 0
232 0
233 0
234 0
235 0
236 0
237 0
238 0
239 0
240 0
241 0
242 0
243 0
-244 0
245 0
246 0
247 0
248 0
249 0
250 0
251 0
252 0
253 0
254 0
255 0
256 0
257 0
258 0
259 0
260 0
261 0
262 0
263 0
264 0
265 0
266 0
267 0
268 0
269 0
270 0
271 0
272 0
273 0
274 0
275 0
276 0
277 0
278 0
279 0
280 0
281 0
282 0
283 0
284 0
285 0
286 0
287 0
288 0
289 0
290 0
291 0
292 0
293 0
294 0
295 0
296 0
297 0
-298 0
299 0
300 0
301 0
302 0
303 0
304 0
305 0
306 0
-307 0
308 0
309 0
310 0
311 0
312 0
313 0
314 0
315 0
316 0
317 0
318 0
319 0
320 0
321 0
322 0
323 0
324 0
325 0
326 0
327 0
328 0
329 0
330 0
331 0
332 0
333 0
334 0
-335 0
336 0
337 0
338 0
339 0
340 0
341 0
342 0
343 0
344 0
345 0
346 0
347 0
348 0
349 0
350 0
351 0
352 0
353 0
354 0
355 0
356 0
357 0
358 0
359 0
360 0
361 0
362 0
363 0
364 0
365 0
366 0
367 0
368 0
369 0
370 0
371 0
372 0
373 0
374 0
375 0
376 0
377 0
378 0
379 0
380 0
381 0
382 0
383 0
384 0
385 0
386 0
387 0
388 0
389 0
390 0
391 0
392 0
393 0
394 0
395 0
-396 0
-397 0
-398 0
-399 0
-400 0
-401 0
-402 0
-403 0
-404 0
-405 0
-406 0
-407 0
-408 0
-409 0
-410 0
-411 0
-412 0
-413 0
-414 0
-415 0
-416 0
-417 0
-418 0
-419 0
-420 0
-421 0
-422 0
-423 0
-424 0
-425 0
-426 0
-427 0
-428 0
-429 0
-430 0
-431 0
-432 0
-433 0
-434 0
-435 0
-436 0
-437 0
-438 0
-439 0
-440 0
-441 0
-442 0
-443 0
-444 0
-445 0
-446 0
-447 0
-448 0
-449 0
-450 0
-451 0
-452 0
-453 0
-454 0
-455 0
-456 0
-457 0
-458 0
-459 0
-460 0
-461 0
-462 0
-463 0
-464 0
-465 0
-466 0
-467 0
-468 0
-469 0
-470 0
-471 0
-472 0
-473 0
-474 0
-475 0
-476 0
-477 0
-478 0
-479 0
-480 0
-481 0
-482 0
-483 0
-484 0
-485 0
-486 0
-487 0
-488 0
-493 0
-494 0
-495 0
-497 0
-498 0
-499 0
-500 0
-501 0
-502 0
-503 0
-504 0
-505 0
-506 0
-507 0
-508 0
-509 0
-510 0
-511 0
-512 0
-513 0
-514 0
-515 0
-516 0
-517 0
-519 0
-520 0
-521 0
-522 0
-523 0
-524 0
-525 0
-526 0
-527 0
-528 0
-529 0
-530 0
-531 0
-532 0
-533 0
-534 0
-535 0
-536 0
-537 0
-538 0
-539 0
-540 0
-541 0
-542 0
-543 0
-544 0
-545 0
-546 0
-547 0
-548 0
-549 0
-550 0
-551 0
-552 0
-553 0
-554 0
-555 0
-556 0
-557 0
-558 0
-559 0
-560 0
-561 0
-562 0
-563 0
-564 0
-565 0
-566 0
-567 0
-568 0
-569 0
-570 0
-571 0
-572 0
-573 0
-574 0
-575 0
-576 0
-577 0
-578 0
-579 0
-580 0
-581 0
-582 0
-583 0
-584 0
-585 0
-586 0
-587 0
-588 0
-589 0
-590 0
-591 0
-592 0
-593 0
-594 0
-595 0
-596 0
-597 0
-598 0
-599 0
-600 0
-601 0
-602 0
-603 0
-604 0
-605 0
-606 0
-607 0
-608 0
-609 0
-610 0
-611 0
-612 0
-613 0
-614 0
-615 0
-616 0
-617 0
-618 0
-619 0
-620 0
-621 0
-622 0
-623 0
-624 0
-625 0
-626 0
-627 0
-628 0
-629 0
-630 0
-631 0
-632 0
-633 0
-634 0
-635 0
636 0
-637 0
-638 0
-639 0
-640 0
-641 0
-642 0
-643 0
-644 0
-645 0
-646 0
-647 0
-648 0
-649 0
-650 0
-651 0
-652 0
-653 0
-654 0
-655 0
-656 0
-657 0
-658 0
-659 0
-660 0
-661 0
-662 0
-663 0
-664 0
-665 0
-666 0
-667 0
-668 0
-669 0
-670 0
-671 0
-672 0
-673 0
-674 0
-675 0
-676 0
-677 0
-678 0
-679 0
-680 0
-681 0
-682 0
-683 0
-684 0
-685 0
-686 0
-687 0
-688 0
-689 0
-690 0
-691 0
-692 0
-693 0
-694 0
-695 0
-696 0
-697 0
-698 0
699 0
-700 0
-701 0
-702 0
-703 0
-704 0
-705 0
-706 0
-707 0
-708 0
-709 0
-710 0
-711 0
-712 0
-713 0
-714 0
-715 0
-716 0
-717 0
-718 0
-719 0
-720 0
-721 0
-722 0
-723 0
-724 0
-725 0
-726 0
727 0
-728 0
-729 0
-730 0
-731 0
-732 0
-733 0
-734 0
-735 0
-736 0
-737 0
-738 0
-739 0
-740 0
-741 0
-742 0
-743 0
-744 0
-745 0
-746 0
-747 0
-748 0
-749 0
-750 0
-751 0
-752 0
-753 0
-754 0
-755 0
-756 0
-757 0
-758 0
-759 0
-760 0
-761 0
-762 0
-763 0
-764 0
-765 0
-766 0
-767 0
-768 0
-769 0
-770 0
-771 0
-772 0
-773 0
-774 0
-775 0
-776 0
-777 0
-778 0
-779 0
-780 0
-781 0
-782 0
-783 0
-784 0
-785 0
-786 0
-787 0
788 0
789 0
790 0
-791 0
795 0
-796 0
-800 0
804 0
-805 0
811 0
812 0
813 0
814 0
816 0
838 0
839 0
848 0
856 0
864 0
-912 0
913 0
914 0
915 0
916 0
917 0
-924 0
946 0
975 0
1035 0
1064 0
1093 0
1123 0
1154 0
1264 0
1303 0
1332 0
-1439 0
1440 0
1441 0
1442 0
1443 0
1445 0
1446 0
1447 0
1448 0
1449 0
1450 0
1451 0
1452 0
1453 0
1454 0
1455 0
1456 0
1457 0
1458 0
1459 0
1460 0
1461 0
1462 0
1463 0
1464 0
1465 0
1466 0
1467 0
1468 0
1469 0
1470 0
1471 0
1472 0
1473 0
1474 0
1475 0
1476 0
1477 0
1478 0
1479 0
1480 0
1481 0
1482 0
1483 0
1484 0
1485 0
1487 0
1488 0
1489 0
1490 0
1491 0
1492 0
1493 0
1495 0
1496 0
1497 0
1498 0
1499 0
1500 0
1501 0
1502 0
1503 0
1504 0
1505 0
1506 0
1507 0
1508 0
1509 0
1510 0
1511 0
1512 0
1513 0
1514 0
1515 0
1516 0
1517 0
1518 0
-1519 0
1520 0
1521 0
1522 0
1523 0
1524 0
1525 0
1526 0
1527 0
1528 0
1529 0
1530 0
1531 0
1532 0
1533 0
1534 0
1535 0
1536 0
1537 0
1538 0
1539 0
1540 0
1541 0
1542 0
1543 0
1544 0
1545 0
1546 0
-1547 0
1548 0
1549 0
1550 0
1551 0
1552 0
1553 0
1554 0
1555 0
1556 0
1557 0
1558 0
1559 0
1560 0
1561 0
1562 0
1563 0
1564 0
1565 0
1566 0
1567 0
1568 0
1569 0
1570 0
1571 0
1572 0
1573 0
1574 0
-1575 0
1576 0
1577 0
1578 0
1579 0
1580 0
1581 0
1582 0
1583 0
1584 0
1585 0
1586 0
1587 0
1588 0
1589 0
1590 0
1591 0
1592 0
1593 0
1594 0
1595 0
1596 0
1597 0
1598 0
1599 0
1600 0
1601 0
1602 0
1603 0
1604 0
1605 0
1606 0
1607 0
1608 0
1609 0
1610 0
1611 0
1612 0
1613 0
1614 0
1615 0
1616 0
1617 0
1618 0
1619 0
1620 0
1621 0
1622 0
1623 0
1624 0
1625 0
1626 0
1627 0
1628 0
1629 0
1630 0
1631 0
1632 0
1633 0
1634 0
1635 0
1636 0
1637 0
1638 0
1639 0
1640 0
1641 0
1642 0
1643 0
1644 0
1645 0
1646 0
1647 0
1648 0
1649 0
1650 0
1651 0
1652 0
1653 0
1654 0
1655 0
1656 0
1657 0
1658 0
1659 0
1660 0
1661 0
1662 0
1663 0
1664 0
1665 0
1666 0
1667 0
1668 0
1669 0
1670 0
1671 0
1672 0
1673 0
1674 0
1675 0
1676 0
1677 0
1678 0
1679 0
1680 0
1681 0
1682 0
1683 0
1684 0
1685 0
1686 0
1687 0
1688 0
1689 0
1690 0
1691 0
1692 0
1693 0
1694 0
1695 0
1696 0
1697 0
1698 0
1699 0
1700 0
1701 0
1702 0
1703 0
1704 0
1705 0
1706 0
1707 0
1708 0
1709 0
1710 0
1711 0
1712 0
1713 0
1714 0
1715 0
1716 0
1717 0
1718 0
1719 0
1720 0
1721 0
1722 0
1723 0
1724 0
1725 0
1726 0
1727 0
1728 0
1729 0
1730 0
1731 0
1732 0
1733 0
1734 0
1735 0
1736 0
1737 0
1738 0
1739 0
1740 0
1741 0
1742 0
1743 0
1744 0
1745 0
1746 0
1747 0
1748 0
1749 0
1750 0
1751 0
1752 0
1753 0
1754 0
1755 0
1756 0
1757 0
1758 0
1759 0
1760 0
1761 0
1762 0
1763 0
1764 0
1765 0
1766 0
1767 0
1768 0
1769 0
1770 0
1771 0
1772 0
1773 0
1774 0
1775 0
1776 0
1777 0
1778 0
1779 0
1780 0
1781 0
1782 0
1783 0
1784 0
1785 0
1786 0
1787 0
1788 0
1789 0
1790 0
1791 0
1792 0
1793 0
1794 0
1795 0
1796 0
1797 0
1798 0
1799 0
1800 0
1801 0
1802 0
1803 0
1804 0
1805 0
1807 0
1808 0
1809 0
1810 0
1811 0
1812 0
1813 0
1814 0
1815 0
1816 0
1817 0
1818 0
1819 0
1820 0
1822 0
1823 0
1824 0
1825 0
1827 0
1828 0
1829 0
1830 0
2731 0
-2732 0
-2733 0
-2734 0
-2735 0
-2736 0
-2737 0
-2738 0
-2739 0
-2740 0
-2741 0
-2742 0
-2743 0
-2744 0
-2745 0
-2746 0
-2747 0
-2748 0
-2749 0
-2750 0
-2751 0
-2752 0
-2753 0
-2754 0
-2755 0
-2756 0
-2757 0
-2758 0
-2759 0
-2760 0
-2761 0
-2762 0
-2763 0
-2764 0
-2765 0
-2766 0
-2767 0
-2768 0
-2769 0
-2770 0
-2771 0
-2772 0
-2773 0
-2774 0
-2775 0
-2776 0
-2777 0
-2778 0
-2779 0
-2780 0
-2781 0
-2782 0
-2783 0
-2784 0
-2785 0
-2786 0
-2787 0
-2788 0
-2789 0
-2790 0
-2791 0
-2792 0
-2793 0
-2794 0
-2795 0
-2796 0
-2797 0
-2798 0
-2799 0
-2800 0
-2801 0
-2802 0
-2803 0
-2804 0
-2805 0
-2806 0
-2807 0
-2808 0
-2809 0
-2810 0
-2811 0
-2812 0
-2813 0
-2814 0
-2815 0
-2816 0
-2817 0
-2818 0
-2819 0
-2820 0
-2821 0
-2822 0
-2823 0
-2824 0
-2829 0
-2830 0
-2831 0
-2833 0
-2834 0
-2835 0
-2836 0
-2837 0
-2838 0
-2839 0
-2840 0
-2841 0
-2842 0
-2843 0
-2844 0
-2845 0
-2846 0
-2847 0
-2848 0
-2849 0
-2850 0
-2851 0
-2852 0
-2853 0
-2855 0
-2856 0
-2857 0
-2858 0
-2859 0
-2860 0
-2861 0
-2862 0
-2863 0
-2864 0
-2865 0
-2866 0
-2867 0
-2868 0
-2869 0
-2870 0
-2871 0
-2872 0
-2873 0
-2874 0
-2875 0
-2876 0
-2877 0
-2878 0
-2879 0
-2880 0
-2881 0
-2882 0
-2883 0
-2884 0
-2885 0
-2886 0
-2887 0
-2888 0
-2889 0
-2890 0
-2891 0
-2892 0
-2893 0
-2894 0
-2895 0
-2896 0
-2897 0
-2898 0
-2899 0
-2900 0
-2901 0
-2902 0
-2903 0
-2904 0
-2905 0
-2906 0
-2907 0
-2908 0
-2909 0
-2910 0
-2911 0
-2912 0
-2913 0
-2914 0
-2915 0
-2916 0
-2917 0
-2918 0
-2919 0
-2920 0
-2921 0
-2922 0
-2923 0
-2924 0
-2925 0
-2926 0
-2927 0
-2928 0
-2929 0
-2930 0
-2931 0
-2932 0
-2933 0
-2934 0
-2935 0
-2936 0
-2937 0
-2938 0
-2939 0
-2940 0
-2941 0
-2942 0
-2943 0
-2944 0
-2945 0
-2946 0
-2947 0
-2948 0
-2949 0
-2950 0
-2951 0
-2952 0
-2953 0
-2954 0
-2955 0
-2956 0
-2957 0
-2958 0
-2959 0
-2960 0
-2961 0
-2962 0
-2963 0
-2964 0
-2965 0
-2966 0
-2967 0
-2968 0
-2969 0
-2970 0
-2971 0
-2972 0
-2973 0
-2974 0
-2975 0
-2976 0
-2977 0
-2978 0
-2979 0
-2980 0
-2981 0
-2982 0
-2983 0
-2984 0
-2985 0
-2986 0
-2987 0
-2988 0
-2989 0
-2990 0
-2991 0
-2992 0
-2993 0
-2994 0
-2995 0
-2996 0
-2997 0
-2998 0
-2999 0
-3000 0
-3001 0
-3002 0
-3003 0
-3004 0
-3005 0
-3006 0
-3007 0
-3008 0
-3009 0
-3010 0
-3011 0
-3012 0
-3013 0
-3014 0
-3015 0
-3016 0
-3017 0
-3018 0
-3019 0
-3020 0
-3021 0
-3022 0
-3023 0
-3024 0
-3025 0
-3026 0
-3027 0
-3028 0
-3029 0
-3030 0
-3031 0
-3032 0
-3033 0
-3034 0
-3035 0
-3036 0
-3037 0
-3038 0
-3039 0
-3040 0
-3041 0
-3042 0
-3043 0
-3044 0
-3045 0
-3046 0
-3047 0
-3048 0
-3049 0
-3050 0
-3051 0
-3052 0
-3053 0
-3054 0
-3055 0
-3056 0
-3057 0
-3058 0
-3059 0
-3060 0
-3061 0
-3062 0
-3063 0
-3064 0
-3065 0
-3066 0
-3067 0
-3068 0
-3069 0
-3070 0
-3071 0
-3072 0
-3073 0
-3074 0
-3075 0
-3076 0
-3077 0
-3078 0
-3079 0
-3080 0
-3081 0
-3082 0
-3083 0
-3084 0
-3085 0
-3086 0
-3087 0
-3088 0
-3089 0
-3090 0
-3091 0
-3092 0
-3093 0
-3094 0
-3095 0
-3096 0
-3097 0
-3098 0
-3099 0
-3100 0
-3101 0
-3102 0
-3103 0
-3104 0
-3105 0
-3106 0
-3107 0
-3108 0
-3109 0
-3110 0
-3111 0
-3112 0
-3113 0
-3114 0
-3115 0
-3116 0
-3117 0
-3118 0
-3119 0
-3120 0
-3121 0
-3122 0
-3123 0
-1890 0
-1891 0
-1892 0
-1893 0
-1894 0
-1895 0
-1896 0
-1897 0
-1929 0
-1930 0
-1931 0
-1932 0
-1933 0
-1934 0
-1935 0
-1936 0
-1937 0
-1938 0
-1939 0
-1940 0
-1941 0
-1942 0
-1943 0
-1944 0
-1945 0
-1946 0
-1947 0
-1948 0
-1949 0
-1950 0
-1951 0
-1952 0
-1953 0
-1954 0
-1955 0
-1956 0
-1957 0
-1958 0
-1959 0
-1960 0
-1961 0
-1962 0
-1963 0
-1964 0
-1965 0
-1966 0
-1967 0
-1968 0
-1969 0
-1970 0
-1971 0
-1972 0
-1973 0
-1974 0
-1975 0
-1976 0
-1977 0
-1978 0
-1979 0
-1980 0
-1981 0
-1982 0
-1983 0
-1984 0
-1985 0
-1986 0
-1987 0
-1988 0
-1989 0
-1990 0
-1991 0
-1992 0
-1993 0
-1994 0
-1995 0
-1996 0
-2178 0
-2179 0
-2180 0
-2181 0
-2182 0
-2183 0
-2184 0
-2185 0
-2186 0
-2187 0
-2188 0
-2189 0
-2190 0
-2191 0
-2192 0
-2193 0
-2194 0
-2195 0
-2196 0
-2197 0
-2198 0
-2199 0
-2200 0
-2201 0
-2202 0
-2203 0
-2204 0
-2205 0
-2206 0
-2207 0
-2208 0
-2209 0
-2210 0
-2211 0
-2212 0
-2213 0
-2214 0
-2215 0
-2216 0
-2217 0
-2218 0
-2219 0
-2220 0
-2221 0
-2222 0
-2223 0
-2224 0
-2225 0
-2226 0
-2227 0
-2228 0
-2229 0
-2230 0
-2231 0
-2232 0
-2233 0
-2234 0
-2235 0
-2236 0
-2237 0
-2238 0
-2239 0
-2240 0
-2241 0
-2242 0
-2243 0
-2244 0
-2245 0
-2246 0
-2247 0
-2248 0
-2249 0
-2250 0
-2251 0
-2252 0
-2253 0
-2254 0
-2255 0
-2256 0
-2257 0
-2292 0
-2293 0
-2294 0
-2295 0
-2296 0
-2297 0
-2298 0
-2299 0
-2300 0
-2301 0
-2042 0
-2302 0
-2303 0
-1924 0
-1925 0
-1926 0
-1927 0
-1928 0
-2067 0
-2068 0
-2069 0
-2070 0
-2071 0
-2072 0
-2073 0
-2074 0
-2075 0
-2076 0
-2077 0
-2078 0
-2079 0
-2080 0
-2081 0
-2082 0
-2304 0
-2305 0
-2083 0
-2084 0
-2306 0
-2307 0
-2085 0
-2086 0
-2087 0
-2088 0
-2089 0
-2090 0
-2091 0
-2092 0
-2093 0
-2094 0
-2095 0
-2096 0
-2097 0
-2098 0
-2043 0
-2099 0
-2100 0
-2308 0
-2101 0
-2309 0
-2102 0
-2103 0
-2310 0
-2104 0
-2311 0
-2105 0
-2106 0
-2107 0
-2108 0
-2109 0
-2110 0
-2020 0
-2021 0
-2022 0
-2023 0
-2024 0
-2312 0
-2025 0
-2026 0
-2027 0
-2028 0
-2029 0
-2313 0
-2030 0
-2031 0
-2314 0
-2032 0
-2033 0
-2315 0
-2034 0
-2316 0
-2035 0
-2036 0
-2037 0
-2038 0
-2039 0
-2040 0
-2041 0
-2045 0
-2046 0
-2047 0
-2048 0
-2049 0
-2050 0
-2317 0
-2051 0
-2044 0
-2052 0
-2053 0
-2318 0
-2054 0
-2319 0
-2055 0
-2056 0
-2057 0
-2320 0
-2058 0
-2321 0
-2059 0
-2060 0
-2061 0
-2062 0
-2063 0
-2064 0
-2065 0
-2066 0
-1898 0
-1899 0
-1900 0
-1901 0
-1902 0
-1903 0
-1904 0
-1905 0
-1906 0
-1907 0
-2322 0
-1908 0
-2323 0
-1909 0
-1910 0
-1911 0
-2324 0
-2325 0
-1912 0
-1913 0
-1914 0
-1915 0
-1916 0
-1917 0
-1918 0
-1919 0
-1920 0
-1997 0
-2326 0
-1998 0
-1921 0
-1999 0
-2000 0
-2001 0
-2002 0
-2003 0
-2004 0
-2327 0
-2005 0
-2328 0
-2006 0
-2007 0
-2329 0
-2330 0
-2008 0
-2009 0
-2010 0
-2011 0
-2012 0
-2013 0
-2014 0
-2015 0
-2331 0
-2016 0
-2332 0
-2017 0
-2018 0
-2019 0
-2333 0
-2258 0
-2259 0
-2260 0
-2261 0
-2262 0
-2263 0
-2264 0
-2265 0
-2266 0
-2267 0
-2268 0
-2269 0
-2270 0
-2271 0
-2334 0
-2272 0
-2273 0
-2274 0
-2275 0
-2335 0
-2276 0
-2336 0
-2277 0
-2337 0
-2278 0
-2338 0
-2279 0
-2280 0
-2281 0
-2282 0
-2283 0
-2284 0
-2285 0
-2286 0
-2287 0
-2288 0
-2289 0
-2290 0
-2291 0
-2111 0
-2112 0
-2113 0
-2114 0
-2115 0
-2116 0
-2117 0
-2118 0
-2119 0
-2120 0
-2121 0
-2122 0
-2123 0
-2124 0
-2125 0
-2126 0
-1922 0
-2127 0
-2128 0
-2129 0
-2130 0
-2131 0
-2132 0
-2133 0
-2134 0
-2135 0
-2136 0
-2137 0
-2138 0
-2139 0
-2140 0
-2141 0
-2142 0
-2143 0
-2144 0
-2145 0
-2146 0
-2147 0
-2148 0
-2149 0
-2150 0
-2151 0
-2152 0
-2153 0
-2154 0
-2155 0
-2156 0
-2157 0
-2158 0
-2159 0
-2160 0
-2161 0
-2162 0
-2163 0
-2164 0
-2165 0
-1923 0
-2166 0
-2167 0
-2168 0
-2169 0
-2170 0
-2171 0
-2172 0
-2173 0
-2174 0
-2175 0
-2176 0
-2177 0
-1831 0
-1832 0
-1833 0
-1834 0
-1835 0
-1836 0
-1837 0
-1838 0
-1839 0
-1840 0
-1841 0
-1842 0
-1843 0
-1844 0
-1845 0
-1846 0
-1847 0
-1848 0
-1849 0
-1850 0
-1851 0
-1852 0
-1853 0
-1854 0
-1855 0
-1856 0
-1857 0
-1858 0
-1859 0
-1860 0
-1861 0
-1862 0
-1863 0
-1864 0
-1865 0
-1866 0
-1867 0
-1868 0
-1869 0
-1870 0
-1871 0
-1872 0
-1873 0
-1874 0
-1875 0
-1876 0
-1877 0
-1878 0
-1879 0
-1880 0
-1881 0
-1882 0
-1883 0
-1884 0
-1885 0
-1886 0
-1887 0
-1888 0
-1889 0

